
Log started (V11.0.0) Thu May 15 23:35:13 2008

Tried aggregator 1 time.
Reduced MIP has 230 rows, 6001 columns, and 12030 nonzeros.
Presolve time =    0.05 sec.
Clique table members: 200.
MIP emphasis: balance optimality and feasibility.
MIP search method: dynamic search.
Parallel mode: none, using 1 thread.
Root relaxation solution time =    0.17 sec.

        Nodes                                         Cuts/
   Node  Left     Objective  IInf  Best Integer     Best Node    ItCnt     Gap

*     0+    0                         3086.0000      199.8816      488   93.52%
*     0+    0                          263.0000      199.8816      488   24.00%
      0     0      200.6060    60      263.0000      Fract: 6      544   23.72%
*     0+    0                          239.0000      200.6060      544   16.06%
      0     0      204.8134    63      239.0000      Cuts: 19      871   14.30%
      0     0      205.2893    65      239.0000       Cuts: 8      934   14.10%
      0     0      205.3162    73      239.0000       Cuts: 6      992   14.09%
*     0+    0                          234.0000      205.3162      992   12.26%
      0     0      205.4384    79      234.0000       Cuts: 6     1017   12.21%
      0     0      205.5981    81      234.0000       Cuts: 4     1095   12.14%
      0     0      205.5981    83      234.0000       Cuts: 4     1099   12.14%
      0     0      205.7275    75      234.0000     Covers: 2     1118   12.08%
      0     0      205.7275    78      234.0000     Covers: 2     1121   12.08%
*     0+    0                          233.0000      205.7275     1121   11.70%
*     0+    0                          230.0000      205.7275     1121   10.55%
*     0+    0                          228.0000      205.7275     1121    9.77%
*     0+    0                          221.0000      205.7275     1121    6.91%
*     0+    0                          217.0000      205.7275     1121    5.19%
*     0+    0                          216.0000      205.7275     1121    4.76%
      0     2      205.7275    78      216.0000      205.7275     1121    4.76%
    100    90      207.0000    35      216.0000      205.7489     4788    4.75%
    200   173      207.0000    37      216.0000      205.7489     9580    4.75%
    300   247      208.1149    45      216.0000      205.7489    12630    4.75%
*   400+  311                          214.0000      205.7489    14958    3.86%
    400   313      209.0000    29      214.0000      205.7489    14958    3.86%
    500   377      210.0000    21      214.0000      205.7489    16400    3.86%
*   510+  257                          213.0000      211.2428    18733    0.82%

Clique cuts applied:  1
Cover cuts applied:  46
Mixed integer rounding cuts applied:  4

Solution pool: 12 solutions saved.

MIP - Integer optimal solution:  Objective = 2.1300000000e+002
Solution time =   17.08 sec.  Iterations = 19819  Nodes = 550 (229)


Incumbent solution
Variable Name           Solution Value
Cmax                        213.000000
X_1_27                        1.000000
X_2_9                         1.000000
X_3_14                        1.000000
X_4_29                        1.000000
X_5_30                        1.000000
X_6_9                         1.000000
X_7_22                        1.000000
X_8_9                         1.000000
X_9_27                        1.000000
X_10_9                        1.000000
X_11_7                        1.000000
X_12_23                       1.000000
X_13_17                       1.000000
X_14_17                       1.000000
X_15_27                       1.000000
X_16_29                       1.000000
X_17_30                       1.000000
X_18_23                       1.000000
X_19_29                       1.000000
X_20_17                       1.000000
X_21_9                        1.000000
X_22_29                       1.000000
X_23_17                       1.000000
X_24_7                        1.000000
X_25_30                       1.000000
X_26_17                       1.000000
X_27_19                       1.000000
X_28_30                       1.000000
X_29_30                       1.000000
X_30_2                        1.000000
X_31_15                       1.000000
X_32_5                        1.000000
X_33_27                       1.000000
X_34_27                       1.000000
X_35_29                       1.000000
X_36_30                       1.000000
X_37_15                       1.000000
X_38_17                       1.000000
X_39_1                        1.000000
X_40_13                       1.000000
X_41_27                       1.000000
X_42_9                        1.000000
X_43_30                       1.000000
X_44_24                       1.000000
X_45_17                       1.000000
X_46_29                       1.000000
X_47_4                        1.000000
X_48_17                       1.000000
X_49_30                       1.000000
X_50_3                        1.000000
X_51_12                       1.000000
X_52_3                        1.000000
X_53_30                       1.000000
X_54_13                       1.000000
X_55_18                       1.000000
X_56_29                       1.000000
X_57_30                       1.000000
X_58_27                       1.000000
X_59_17                       1.000000
X_60_8                        1.000000
X_61_29                       1.000000
X_62_29                       1.000000
X_63_17                       1.000000
X_64_7                        1.000000
X_65_2                        1.000000
X_66_9                        1.000000
X_67_30                       1.000000
X_68_9                        1.000000
X_69_24                       1.000000
X_70_27                       1.000000
X_71_9                        1.000000
X_72_9                        1.000000
X_73_16                       1.000000
X_74_9                        1.000000
X_75_12                       1.000000
X_76_9                        1.000000
X_77_6                        1.000000
X_78_27                       1.000000
X_79_26                       1.000000
X_80_9                        1.000000
X_81_3                        1.000000
X_82_17                       1.000000
X_83_17                       1.000000
X_84_30                       1.000000
X_85_27                       1.000000
X_86_30                       1.000000
X_87_21                       1.000000
X_88_30                       1.000000
X_89_29                       1.000000
X_90_17                       1.000000
X_91_10                       1.000000
X_92_19                       1.000000
X_93_30                       1.000000
X_94_29                       1.000000
X_95_16                       1.000000
X_96_14                       1.000000
X_97_17                       1.000000
X_98_20                       1.000000
X_99_27                       1.000000
X_100_29                      1.000000
X_101_2                       1.000000
X_102_9                       1.000000
X_103_4                       1.000000
X_104_9                       1.000000
X_105_28                      1.000000
X_106_30                      1.000000
X_107_23                      1.000000
X_108_30                      1.000000
X_109_27                      1.000000
X_110_3                       1.000000
X_111_23                      1.000000
X_112_27                      1.000000
X_113_2                       1.000000
X_114_27                      1.000000
X_115_17                      1.000000
X_116_9                       1.000000
X_117_7                       1.000000
X_118_20                      1.000000
X_119_21                      1.000000
X_120_10                      1.000000
X_121_8                       1.000000
X_122_17                      1.000000
X_123_30                      1.000000
X_124_30                      1.000000
X_125_30                      1.000000
X_126_3                       1.000000
X_127_29                      1.000000
X_128_30                      1.000000
X_129_11                      1.000000
X_130_2                       1.000000
X_131_10                      1.000000
X_132_9                       1.000000
X_133_28                      1.000000
X_134_7                       1.000000
X_135_27                      1.000000
X_136_29                      1.000000
X_137_27                      1.000000
X_138_9                       1.000000
X_139_22                      1.000000
X_140_10                      1.000000
X_141_9                       1.000000
X_142_9                       1.000000
X_143_30                      1.000000
X_144_30                      1.000000
X_145_23                      1.000000
X_146_3                       1.000000
X_147_7                       1.000000
X_148_7                       1.000000
X_149_1                       1.000000
X_150_30                      1.000000
X_151_9                       1.000000
X_152_15                      1.000000
X_153_25                      1.000000
X_154_13                      1.000000
X_155_23                      1.000000
X_156_8                       1.000000
X_157_30                      1.000000
X_158_13                      1.000000
X_159_4                       1.000000
X_160_14                      1.000000
X_161_15                      1.000000
X_162_30                      1.000000
X_163_30                      1.000000
X_164_8                       1.000000
X_165_8                       1.000000
X_166_27                      1.000000
X_167_29                      1.000000
X_168_19                      1.000000
X_169_9                       1.000000
X_170_16                      1.000000
X_171_6                       1.000000
X_172_9                       1.000000
X_173_29                      1.000000
X_174_9                       1.000000
X_175_11                      1.000000
X_176_13                      1.000000
X_177_29                      1.000000
X_178_5                       1.000000
X_179_15                      1.000000
X_180_7                       1.000000
X_181_9                       1.000000
X_182_15                      1.000000
X_183_3                       1.000000
X_184_15                      1.000000
X_185_28                      1.000000
X_186_9                       1.000000
X_187_18                      1.000000
X_188_6                       1.000000
X_189_23                      1.000000
X_190_8                       1.000000
X_191_26                      1.000000
X_192_17                      1.000000
X_193_29                      1.000000
X_194_9                       1.000000
X_195_17                      1.000000
X_196_30                      1.000000
X_197_17                      1.000000
X_198_27                      1.000000
X_199_30                      1.000000
X_200_25                      1.000000
All other variables in the range 1-6001 are 0.
